TOUR:
 1 22 61 69 36 71 60 70 20 37 15 57 13 54 59 66 65 38 11 53 14 19 35 7 8 46 34 52 27 45 29 5 48 47 21 28 74 30 4 75 76 67 26 12 40 17 51 6 68 2 62 73 33 63 16 3 44 32 9 39 72 58 10 31 55 25 50 18 24 49 23 56 41 64 42 43
COST = 558
